2018/problems/formulublad/data/secret/knapsack-20.in
21 923
107 78427
82 27233
60 614657
563 283544
180 568611
135 512269
350 324106
847 249432
542 171767
126 218708
763 137357
119 99487
265 871288
307 781124
164 555124
684 714406
85 475626
770 177294
600 398656
108 204417
82 978542
