2018/problems/formulublad/data/secret/knapsack-20.ans
7 4226214
2 5 9 12 14 16 20 
